; benchmark generated from python API
(set-info :status unknown)
(declare-fun x_days () Int)
(assert
 (>= x_days (- 36525)))
(assert
 (<= x_days 36523))
(assert
 (= x_days 7304))
(assert
 (let ((?x571 (+ x_days 730179)))
(let ((?x495 (mod ?x571 146097)))
(let ((?x541 (div ?x495 36524)))
(let ((?x1107 (ite (<= 4 ?x541) 3 ?x541)))
(let ((?x458 (- ?x495 (* ?x1107 36524))))
(let ((?x910 (mod ?x458 1461)))
(let ((?x1024 (div ?x910 365)))
(let ((?x748 (ite (<= 4 ?x1024) 3 ?x1024)))
(let ((?x3086 (+ (+ (* (div ?x571 146097) 400) (* ?x1107 100)) (* (div ?x458 1461) 4))))
(let ((?x2626 (+ (+ ?x3086 ?x748) 1)))
(let (($x3503 (or (and (= (mod ?x2626 4) 0) (and (distinct (mod ?x2626 100) 0) true)) (= (mod ?x2626 400) 0))))
(let ((?x503 (- ?x910 (* ?x748 365))))
(let ((?x1058 (ite $x3503 31 31)))
(let (($x478 (>= ?x503 ?x1058)))
(let ((?x844 (ite $x478 (+ (- ?x503 ?x1058) 1) (+ (- ?x503 (ite $x3503 0 0)) 1))))
(let ((?x795 (ite $x3503 60 59)))
(let (($x919 (>= ?x503 ?x795)))
(let ((?x981 (ite $x3503 91 90)))
(let (($x1175 (>= ?x503 ?x981)))
(let ((?x862 (ite $x1175 (+ (- ?x503 ?x981) 1) (ite $x919 (+ (- ?x503 ?x795) 1) ?x844))))
(let ((?x631 (ite $x3503 121 120)))
(let (($x3702 (>= ?x503 ?x631)))
(let ((?x481 (ite $x3503 152 151)))
(let (($x1026 (>= ?x503 ?x481)))
(let ((?x825 (ite $x1026 (+ (- ?x503 ?x481) 1) (ite $x3702 (+ (- ?x503 ?x631) 1) ?x862))))
(let ((?x645 (ite $x3503 182 181)))
(let (($x947 (>= ?x503 ?x645)))
(let ((?x1179 (ite $x3503 213 212)))
(let (($x1067 (>= ?x503 ?x1179)))
(let ((?x847 (ite $x1067 (+ (- ?x503 ?x1179) 1) (ite $x947 (+ (- ?x503 ?x645) 1) ?x825))))
(let ((?x1003 (ite $x3503 244 243)))
(let (($x826 (>= ?x503 ?x1003)))
(let ((?x629 (ite $x3503 274 273)))
(let (($x1104 (>= ?x503 ?x629)))
(let ((?x823 (ite $x1104 (+ (- ?x503 ?x629) 1) (ite $x826 (+ (- ?x503 ?x1003) 1) ?x847))))
(let ((?x801 (ite $x3503 305 304)))
(let (($x986 (>= ?x503 ?x801)))
(let ((?x1134 (ite $x3503 335 334)))
(let (($x1019 (>= ?x503 ?x1134)))
(let ((?x675 (ite $x1019 (+ (- ?x503 ?x1134) 1) (ite $x986 (+ (- ?x503 ?x801) 1) ?x823))))
(let ((?x3041 (ite $x3702 5 (ite $x1175 4 (ite $x919 3 (ite $x478 2 1))))))
(let ((?x1174 (ite $x826 9 (ite $x1067 8 (ite $x947 7 (ite $x1026 6 ?x3041))))))
(let ((?x557 (+ (ite $x1019 12 (ite $x986 11 (ite $x1104 10 ?x1174))) (+ (* 1 12) 0))))
(let ((?x987 (- ?x557 1)))
(let ((?x602 (+ (mod ?x987 12) 1)))
(let ((?x818 (ite (or (= ?x602 4) (= ?x602 6) (= ?x602 9) (= ?x602 11)) 30 31)))
(let (($x1032 (and (= (mod (+ ?x2626 (+ 0 (div ?x987 12))) 4) 0) (and (distinct (mod (+ ?x2626 (+ 0 (div ?x987 12))) 100) 0) true))))
(let (($x800 (or $x1032 (= (mod (+ ?x2626 (+ 0 (div ?x987 12))) 400) 0))))
(let ((?x836 (ite (= ?x602 2) (ite $x800 29 28) ?x818)))
(let ((?x2460 (ite (> 1 ?x675) 1 (ite (> ?x675 ?x836) ?x836 ?x675))))
(let ((?x848 (ite (> 1 ?x2460) 1 (ite (> ?x2460 ?x836) ?x836 ?x2460))))
(let ((?x808 (ite (= 2 ?x602) (ite $x800 31 31) (ite (= 1 ?x602) (ite $x800 0 0) 0))))
(let ((?x455 (ite (= 4 ?x602) (ite $x800 91 90) (ite (= 3 ?x602) (ite $x800 60 59) ?x808))))
(let ((?x530 (ite (= 6 ?x602) (ite $x800 152 151) (ite (= 5 ?x602) (ite $x800 121 120) ?x455))))
(let ((?x490 (ite (= 8 ?x602) (ite $x800 213 212) (ite (= 7 ?x602) (ite $x800 182 181) ?x530))))
(let ((?x406 (ite (= 10 ?x602) (ite $x800 274 273) (ite (= 9 ?x602) (ite $x800 244 243) ?x490))))
(let ((?x832 (ite (= 12 ?x602) (ite $x800 335 334) (ite (= 11 ?x602) (ite $x800 305 304) ?x406))))
(let ((?x810 (+ (* 365 (- (+ ?x2626 (+ 0 (div ?x987 12))) 1)) (div (- (+ ?x2626 (+ 0 (div ?x987 12))) 1) 4))))
(let ((?x997 (+ (- ?x810 (div (- (+ ?x2626 (+ 0 (div ?x987 12))) 1) 100)) (div (- (+ ?x2626 (+ 0 (div ?x987 12))) 1) 400))))
(let ((?x498 (+ (+ (- (+ (+ ?x997 ?x832) (- ?x848 1)) 730179) 0) 730179)))
(let ((?x792 (mod ?x498 146097)))
(let ((?x537 (div ?x792 36524)))
(let ((?x839 (ite (<= 4 ?x537) 3 ?x537)))
(let ((?x3531 (- ?x792 (* ?x839 36524))))
(let ((?x3469 (mod ?x3531 1461)))
(let ((?x2785 (div ?x3469 365)))
(let ((?x585 (ite (<= 4 ?x2785) 3 ?x2785)))
(let ((?x797 (+ (+ (* (div ?x498 146097) 400) (* ?x839 100)) (* (div ?x3531 1461) 4))))
(let ((?x1147 (+ (+ ?x797 ?x585) 1)))
(let (($x846 (or (and (= (mod ?x1147 4) 0) (and (distinct (mod ?x1147 100) 0) true)) (= (mod ?x1147 400) 0))))
(let ((?x991 (- ?x3469 (* ?x585 365))))
(let ((?x1145 (ite $x846 31 31)))
(let (($x966 (>= ?x991 ?x1145)))
(let ((?x855 (ite $x966 (+ (- ?x991 ?x1145) 1) (+ (- ?x991 (ite $x846 0 0)) 1))))
(let ((?x1018 (ite $x846 60 59)))
(let (($x1135 (>= ?x991 ?x1018)))
(let ((?x2528 (ite $x846 91 90)))
(let (($x403 (>= ?x991 ?x2528)))
(let ((?x627 (ite $x403 (+ (- ?x991 ?x2528) 1) (ite $x1135 (+ (- ?x991 ?x1018) 1) ?x855))))
(let ((?x3451 (ite $x846 121 120)))
(let (($x453 (>= ?x991 ?x3451)))
(let ((?x779 (ite $x846 152 151)))
(let (($x916 (>= ?x991 ?x779)))
(let ((?x402 (ite $x916 (+ (- ?x991 ?x779) 1) (ite $x453 (+ (- ?x991 ?x3451) 1) ?x627))))
(let ((?x3452 (ite $x846 182 181)))
(let (($x521 (>= ?x991 ?x3452)))
(let ((?x842 (ite $x846 213 212)))
(let (($x442 (>= ?x991 ?x842)))
(let ((?x1053 (ite $x442 (+ (- ?x991 ?x842) 1) (ite $x521 (+ (- ?x991 ?x3452) 1) ?x402))))
(let ((?x548 (ite $x846 244 243)))
(let (($x1128 (>= ?x991 ?x548)))
(let ((?x871 (ite $x846 274 273)))
(let (($x894 (>= ?x991 ?x871)))
(let ((?x850 (ite $x894 (+ (- ?x991 ?x871) 1) (ite $x1128 (+ (- ?x991 ?x548) 1) ?x1053))))
(let ((?x1004 (ite $x846 305 304)))
(let (($x1835 (>= ?x991 ?x1004)))
(let ((?x538 (ite $x846 335 334)))
(let (($x837 (>= ?x991 ?x538)))
(let ((?x692 (ite $x837 (+ (- ?x991 ?x538) 1) (ite $x1835 (+ (- ?x991 ?x1004) 1) ?x850))))
(let (($x866 (= 0 0)))
(let (($x756 (= (mod (ite $x866 (+ ?x2626 (+ 0 (div ?x987 12))) ?x1147) 400) 0)))
(let (($x1079 (and (distinct (mod (ite $x866 (+ ?x2626 (+ 0 (div ?x987 12))) ?x1147) 100) 0) true)))
(let (($x673 (= (mod (ite $x866 (+ ?x2626 (+ 0 (div ?x987 12))) ?x1147) 4) 0)))
(let (($x422 (or (and $x673 $x1079) $x756)))
(let ((?x932 (ite $x453 5 (ite $x403 4 (ite $x1135 3 (ite $x966 2 1))))))
(let ((?x3529 (ite $x1128 9 (ite $x442 8 (ite $x521 7 (ite $x916 6 ?x932))))))
(let ((?x865 (ite $x866 ?x602 (ite $x837 12 (ite $x1835 11 (ite $x894 10 ?x3529))))))
(let ((?x929 (ite (= 2 ?x865) (ite $x422 31 31) (ite (= 1 ?x865) (ite $x422 0 0) 0))))
(let ((?x872 (ite (= 4 ?x865) (ite $x422 91 90) (ite (= 3 ?x865) (ite $x422 60 59) ?x929))))
(let ((?x758 (ite (= 6 ?x865) (ite $x422 152 151) (ite (= 5 ?x865) (ite $x422 121 120) ?x872))))
(let ((?x2063 (ite (= 8 ?x865) (ite $x422 213 212) (ite (= 7 ?x865) (ite $x422 182 181) ?x758))))
(let ((?x1485 (ite (= 10 ?x865) (ite $x422 274 273) (ite (= 9 ?x865) (ite $x422 244 243) ?x2063))))
(let ((?x1126 (ite (= 12 ?x865) (ite $x422 335 334) (ite (= 11 ?x865) (ite $x422 305 304) ?x1485))))
(let ((?x551 (+ ?x2626 (+ 0 (div ?x987 12)))))
(let ((?x644 (ite $x866 ?x551 ?x1147)))
(let ((?x829 (- ?x644 1)))
(let ((?x864 (+ (- (+ (* 365 ?x829) (div ?x829 4)) (div ?x829 100)) (div ?x829 400))))
(= (- (+ (+ ?x864 ?x1126) (- (ite $x866 ?x848 ?x692) 1)) 730179) 7669)))))))))))))))))))))))))))))))))))))))))))))))))))))))))))))))))))))))))))))))))))))))))))))))))))))))))))))))))))))))
(check-sat)
